c nIsolatedPIs 14
c maxPI 121
p cnf 657 1609
c gate 122 88 -116 0
88 -122 0
-116 -122 0
-88 116 122 0
c gate 123 86 116 0
86 -123 0
116 -123 0
-86 -116 123 0
c gate 124 -122 -123 0
-122 -124 0
-123 -124 0
122 123 124 0
c gate 125 115 124 0
115 -125 0
124 -125 0
-115 -124 125 0
c gate 126 87 116 0
87 -126 0
116 -126 0
-87 -116 126 0
c gate 127 89 -116 0
89 -127 0
-116 -127 0
-89 116 127 0
c gate 128 -115 -127 0
-115 -128 0
-127 -128 0
115 127 128 0
c gate 129 -126 128 0
-126 -129 0
128 -129 0
126 -128 129 0
c gate 130 118 -129 0
118 -130 0
-129 -130 0
-118 129 130 0
c gate 131 -125 130 0
-125 -131 0
130 -131 0
125 -130 131 0
c gate 132 95 116 0
95 -132 0
116 -132 0
-95 -116 132 0
c gate 133 97 -116 0
97 -133 0
-116 -133 0
-97 116 133 0
c gate 134 -115 -133 0
-115 -134 0
-133 -134 0
115 133 134 0
c gate 135 -132 134 0
-132 -135 0
134 -135 0
132 -134 135 0
c gate 136 94 116 0
94 -136 0
116 -136 0
-94 -116 136 0
c gate 137 96 -116 0
96 -137 0
-116 -137 0
-96 116 137 0
c gate 138 115 -137 0
115 -138 0
-137 -138 0
-115 137 138 0
c gate 139 -136 138 0
-136 -139 0
138 -139 0
136 -138 139 0
c gate 140 -118 -139 0
-118 -140 0
-139 -140 0
118 139 140 0
c gate 141 -135 140 0
-135 -141 0
140 -141 0
135 -140 141 0
c gate 142 117 -141 0
117 -142 0
-141 -142 0
-117 141 142 0
c gate 143 -131 142 0
-131 -143 0
142 -143 0
131 -142 143 0
c gate 144 92 -116 0
92 -144 0
-116 -144 0
-92 116 144 0
c gate 145 90 116 0
90 -145 0
116 -145 0
-90 -116 145 0
c gate 146 -144 -145 0
-144 -146 0
-145 -146 0
144 145 146 0
c gate 147 115 146 0
115 -147 0
146 -147 0
-115 -146 147 0
c gate 148 91 116 0
91 -148 0
116 -148 0
-91 -116 148 0
c gate 149 93 -116 0
93 -149 0
-116 -149 0
-93 116 149 0
c gate 150 -115 -149 0
-115 -150 0
-149 -150 0
115 149 150 0
c gate 151 -148 150 0
-148 -151 0
150 -151 0
148 -150 151 0
c gate 152 118 -151 0
118 -152 0
-151 -152 0
-118 151 152 0
c gate 153 -147 152 0
-147 -153 0
152 -153 0
147 -152 153 0
c gate 154 99 116 0
99 -154 0
116 -154 0
-99 -116 154 0
c gate 155 101 -116 0
101 -155 0
-116 -155 0
-101 116 155 0
c gate 156 -115 -155 0
-115 -156 0
-155 -156 0
115 155 156 0
c gate 157 -154 156 0
-154 -157 0
156 -157 0
154 -156 157 0
c gate 158 98 116 0
98 -158 0
116 -158 0
-98 -116 158 0
c gate 159 100 -116 0
100 -159 0
-116 -159 0
-100 116 159 0
c gate 160 115 -159 0
115 -160 0
-159 -160 0
-115 159 160 0
c gate 161 -158 160 0
-158 -161 0
160 -161 0
158 -160 161 0
c gate 162 -118 -161 0
-118 -162 0
-161 -162 0
118 161 162 0
c gate 163 -157 162 0
-157 -163 0
162 -163 0
157 -162 163 0
c gate 164 -117 -163 0
-117 -164 0
-163 -164 0
117 163 164 0
c gate 165 -153 164 0
-153 -165 0
164 -165 0
153 -164 165 0
c gate 166 -143 -165 0
-143 -166 0
-165 -166 0
143 165 166 0
c gate 167 -120 -166 0
-120 -167 0
-166 -167 0
120 166 167 0
c gate 168 64 -116 0
64 -168 0
-116 -168 0
-64 116 168 0
c gate 169 62 116 0
62 -169 0
116 -169 0
-62 -116 169 0
c gate 170 -168 -169 0
-168 -170 0
-169 -170 0
168 169 170 0
c gate 171 115 170 0
115 -171 0
170 -171 0
-115 -170 171 0
c gate 172 63 116 0
63 -172 0
116 -172 0
-63 -116 172 0
c gate 173 65 -116 0
65 -173 0
-116 -173 0
-65 116 173 0
c gate 174 -172 -173 0
-172 -174 0
-173 -174 0
172 173 174 0
c gate 175 -115 174 0
-115 -175 0
174 -175 0
115 -174 175 0
c gate 176 -118 -175 0
-118 -176 0
-175 -176 0
118 175 176 0
c gate 177 -171 176 0
-171 -177 0
176 -177 0
171 -176 177 0
c gate 178 56 -116 0
56 -178 0
-116 -178 0
-56 116 178 0
c gate 179 54 116 0
54 -179 0
116 -179 0
-54 -116 179 0
c gate 180 -178 -179 0
-178 -180 0
-179 -180 0
178 179 180 0
c gate 181 115 180 0
115 -181 0
180 -181 0
-115 -180 181 0
c gate 182 55 116 0
55 -182 0
116 -182 0
-55 -116 182 0
c gate 183 57 -116 0
57 -183 0
-116 -183 0
-57 116 183 0
c gate 184 -182 -183 0
-182 -184 0
-183 -184 0
182 183 184 0
c gate 185 -115 184 0
-115 -185 0
184 -185 0
115 -184 185 0
c gate 186 118 -185 0
118 -186 0
-185 -186 0
-118 185 186 0
c gate 187 -181 186 0
-181 -187 0
186 -187 0
181 -186 187 0
c gate 188 -177 -187 0
-177 -188 0
-187 -188 0
177 187 188 0
c gate 189 117 -188 0
117 -189 0
-188 -189 0
-117 188 189 0
c gate 190 60 -116 0
60 -190 0
-116 -190 0
-60 116 190 0
c gate 191 58 116 0
58 -191 0
116 -191 0
-58 -116 191 0
c gate 192 -190 -191 0
-190 -192 0
-191 -192 0
190 191 192 0
c gate 193 115 192 0
115 -193 0
192 -193 0
-115 -192 193 0
c gate 194 59 116 0
59 -194 0
116 -194 0
-59 -116 194 0
c gate 195 61 -116 0
61 -195 0
-116 -195 0
-61 116 195 0
c gate 196 -194 -195 0
-194 -196 0
-195 -196 0
194 195 196 0
c gate 197 -115 196 0
-115 -197 0
196 -197 0
115 -196 197 0
c gate 198 118 -197 0
118 -198 0
-197 -198 0
-118 197 198 0
c gate 199 -193 198 0
-193 -199 0
198 -199 0
193 -198 199 0
c gate 200 68 -116 0
68 -200 0
-116 -200 0
-68 116 200 0
c gate 201 66 116 0
66 -201 0
116 -201 0
-66 -116 201 0
c gate 202 -200 -201 0
-200 -202 0
-201 -202 0
200 201 202 0
c gate 203 115 202 0
115 -203 0
202 -203 0
-115 -202 203 0
c gate 204 67 116 0
67 -204 0
116 -204 0
-67 -116 204 0
c gate 205 69 -116 0
69 -205 0
-116 -205 0
-69 116 205 0
c gate 206 -204 -205 0
-204 -206 0
-205 -206 0
204 205 206 0
c gate 207 -115 206 0
-115 -207 0
206 -207 0
115 -206 207 0
c gate 208 -118 -207 0
-118 -208 0
-207 -208 0
118 207 208 0
c gate 209 -203 208 0
-203 -209 0
208 -209 0
203 -208 209 0
c gate 210 -199 -209 0
-199 -210 0
-209 -210 0
199 209 210 0
c gate 211 -117 -210 0
-117 -211 0
-210 -211 0
117 210 211 0
c gate 212 120 -211 0
120 -212 0
-211 -212 0
-120 211 212 0
c gate 213 -189 212 0
-189 -213 0
212 -213 0
189 -212 213 0
c gate 214 -167 -213 0
-167 -214 0
-213 -214 0
167 213 214 0
c gate 215 119 -214 0
119 -215 0
-214 -215 0
-119 214 215 0
c gate 216 -121 215 0
-121 -216 0
215 -216 0
121 -215 216 0
c gate 217 35 116 0
35 -217 0
116 -217 0
-35 -116 217 0
c gate 218 37 -116 0
37 -218 0
-116 -218 0
-37 116 218 0
c gate 219 115 -218 0
115 -219 0
-218 -219 0
-115 218 219 0
c gate 220 -217 219 0
-217 -220 0
219 -220 0
217 -219 220 0
c gate 221 38 -116 0
38 -221 0
-116 -221 0
-38 116 221 0
c gate 222 36 116 0
36 -222 0
116 -222 0
-36 -116 222 0
c gate 223 -115 -222 0
-115 -223 0
-222 -223 0
115 222 223 0
c gate 224 -221 223 0
-221 -224 0
223 -224 0
221 -223 224 0
c gate 225 -118 -224 0
-118 -225 0
-224 -225 0
118 224 225 0
c gate 226 -220 225 0
-220 -226 0
225 -226 0
220 -225 226 0
c gate 227 28 116 0
28 -227 0
116 -227 0
-28 -116 227 0
c gate 228 30 -116 0
30 -228 0
-116 -228 0
-30 116 228 0
c gate 229 -115 -228 0
-115 -229 0
-228 -229 0
115 228 229 0
c gate 230 -227 229 0
-227 -230 0
229 -230 0
227 -229 230 0
c gate 231 29 -116 0
29 -231 0
-116 -231 0
-29 116 231 0
c gate 232 27 116 0
27 -232 0
116 -232 0
-27 -116 232 0
c gate 233 115 -232 0
115 -233 0
-232 -233 0
-115 232 233 0
c gate 234 -231 233 0
-231 -234 0
233 -234 0
231 -233 234 0
c gate 235 118 -234 0
118 -235 0
-234 -235 0
-118 234 235 0
c gate 236 -230 235 0
-230 -236 0
235 -236 0
230 -235 236 0
c gate 237 -117 -236 0
-117 -237 0
-236 -237 0
117 236 237 0
c gate 238 -226 237 0
-226 -238 0
237 -238 0
226 -237 238 0
c gate 239 31 116 0
31 -239 0
116 -239 0
-31 -116 239 0
c gate 240 33 -116 0
33 -240 0
-116 -240 0
-33 116 240 0
c gate 241 115 -240 0
115 -241 0
-240 -241 0
-115 240 241 0
c gate 242 -239 241 0
-239 -242 0
241 -242 0
239 -241 242 0
c gate 243 34 -116 0
34 -243 0
-116 -243 0
-34 116 243 0
c gate 244 32 116 0
32 -244 0
116 -244 0
-32 -116 244 0
c gate 245 -115 -244 0
-115 -245 0
-244 -245 0
115 244 245 0
c gate 246 -243 245 0
-243 -246 0
245 -246 0
243 -245 246 0
c gate 247 -118 -246 0
-118 -247 0
-246 -247 0
118 246 247 0
c gate 248 -242 247 0
-242 -248 0
247 -248 0
242 -247 248 0
c gate 249 24 116 0
24 -249 0
116 -249 0
-24 -116 249 0
c gate 250 26 -116 0
26 -250 0
-116 -250 0
-26 116 250 0
c gate 251 -115 -250 0
-115 -251 0
-250 -251 0
115 250 251 0
c gate 252 -249 251 0
-249 -252 0
251 -252 0
249 -251 252 0
c gate 253 25 -116 0
25 -253 0
-116 -253 0
-25 116 253 0
c gate 254 23 116 0
23 -254 0
116 -254 0
-23 -116 254 0
c gate 255 115 -254 0
115 -255 0
-254 -255 0
-115 254 255 0
c gate 256 -253 255 0
-253 -256 0
255 -256 0
253 -255 256 0
c gate 257 118 -256 0
118 -257 0
-256 -257 0
-118 256 257 0
c gate 258 -252 257 0
-252 -258 0
257 -258 0
252 -257 258 0
c gate 259 117 -258 0
117 -259 0
-258 -259 0
-117 258 259 0
c gate 260 -248 259 0
-248 -260 0
259 -260 0
248 -259 260 0
c gate 261 -238 -260 0
-238 -261 0
-260 -261 0
238 260 261 0
c gate 262 120 -261 0
120 -262 0
-261 -262 0
-120 261 262 0
c gate 263 115 184 0
115 -263 0
184 -263 0
-115 -184 263 0
c gate 264 58 -116 0
58 -264 0
-116 -264 0
-58 116 264 0
c gate 265 56 116 0
56 -265 0
116 -265 0
-56 -116 265 0
c gate 266 -115 -265 0
-115 -266 0
-265 -266 0
115 265 266 0
c gate 267 -264 266 0
-264 -267 0
266 -267 0
264 -266 267 0
c gate 268 118 -267 0
118 -268 0
-267 -268 0
-118 267 268 0
c gate 269 -263 268 0
-263 -269 0
268 -269 0
263 -268 269 0
c gate 270 115 174 0
115 -270 0
174 -270 0
-115 -174 270 0
c gate 271 66 -116 0
66 -271 0
-116 -271 0
-66 116 271 0
c gate 272 64 116 0
64 -272 0
116 -272 0
-64 -116 272 0
c gate 273 -115 -272 0
-115 -273 0
-272 -273 0
115 272 273 0
c gate 274 -271 273 0
-271 -274 0
273 -274 0
271 -273 274 0
c gate 275 -118 -274 0
-118 -275 0
-274 -275 0
118 274 275 0
c gate 276 -270 275 0
-270 -276 0
275 -276 0
270 -275 276 0
c gate 277 -269 -276 0
-269 -277 0
-276 -277 0
269 276 277 0
c gate 278 117 -277 0
117 -278 0
-277 -278 0
-117 277 278 0
c gate 279 115 206 0
115 -279 0
206 -279 0
-115 -206 279 0
c gate 280 70 -116 0
70 -280 0
-116 -280 0
-70 116 280 0
c gate 281 68 116 0
68 -281 0
116 -281 0
-68 -116 281 0
c gate 282 -115 -281 0
-115 -282 0
-281 -282 0
115 281 282 0
c gate 283 -280 282 0
-280 -283 0
282 -283 0
280 -282 283 0
c gate 284 -118 -283 0
-118 -284 0
-283 -284 0
118 283 284 0
c gate 285 -279 284 0
-279 -285 0
284 -285 0
279 -284 285 0
c gate 286 115 196 0
115 -286 0
196 -286 0
-115 -196 286 0
c gate 287 62 -116 0
62 -287 0
-116 -287 0
-62 116 287 0
c gate 288 60 116 0
60 -288 0
116 -288 0
-60 -116 288 0
c gate 289 -115 -288 0
-115 -289 0
-288 -289 0
115 288 289 0
c gate 290 -287 289 0
-287 -290 0
289 -290 0
287 -289 290 0
c gate 291 118 -290 0
118 -291 0
-290 -291 0
-118 290 291 0
c gate 292 -286 291 0
-286 -292 0
291 -292 0
286 -291 292 0
c gate 293 -285 -292 0
-285 -293 0
-292 -293 0
285 292 293 0
c gate 294 -117 -293 0
-117 -294 0
-293 -294 0
117 293 294 0
c gate 295 -120 -294 0
-120 -295 0
-294 -295 0
120 294 295 0
c gate 296 -278 295 0
-278 -296 0
295 -296 0
278 -295 296 0
c gate 297 119 -296 0
119 -297 0
-296 -297 0
-119 296 297 0
c gate 298 -262 297 0
-262 -298 0
297 -298 0
262 -297 298 0
c gate 299 121 298 0
121 -299 0
298 -299 0
-121 -298 299 0
c gate 300 65 116 0
65 -300 0
116 -300 0
-65 -116 300 0
c gate 301 67 -116 0
67 -301 0
-116 -301 0
-67 116 301 0
c gate 302 115 -301 0
115 -302 0
-301 -302 0
-115 301 302 0
c gate 303 -300 302 0
-300 -303 0
302 -303 0
300 -302 303 0
c gate 304 -115 202 0
-115 -304 0
202 -304 0
115 -202 304 0
c gate 305 -118 -304 0
-118 -305 0
-304 -305 0
118 304 305 0
c gate 306 -303 305 0
-303 -306 0
305 -306 0
303 -305 306 0
c gate 307 57 116 0
57 -307 0
116 -307 0
-57 -116 307 0
c gate 308 59 -116 0
59 -308 0
-116 -308 0
-59 116 308 0
c gate 309 115 -308 0
115 -309 0
-308 -309 0
-115 308 309 0
c gate 310 -307 309 0
-307 -310 0
309 -310 0
307 -309 310 0
c gate 311 -115 192 0
-115 -311 0
192 -311 0
115 -192 311 0
c gate 312 118 -311 0
118 -312 0
-311 -312 0
-118 311 312 0
c gate 313 -310 312 0
-310 -313 0
312 -313 0
310 -312 313 0
c gate 314 117 -313 0
117 -314 0
-313 -314 0
-117 313 314 0
c gate 315 -306 314 0
-306 -315 0
314 -315 0
306 -314 315 0
c gate 316 61 116 0
61 -316 0
116 -316 0
-61 -116 316 0
c gate 317 63 -116 0
63 -317 0
-116 -317 0
-63 116 317 0
c gate 318 115 -317 0
115 -318 0
-317 -318 0
-115 317 318 0
c gate 319 -316 318 0
-316 -319 0
318 -319 0
316 -318 319 0
c gate 320 -115 170 0
-115 -320 0
170 -320 0
115 -170 320 0
c gate 321 118 -320 0
118 -321 0
-320 -321 0
-118 320 321 0
c gate 322 -319 321 0
-319 -322 0
321 -322 0
319 -321 322 0
c gate 323 70 116 0
70 -323 0
116 -323 0
-70 -116 323 0
c gate 324 72 -116 0
72 -324 0
-116 -324 0
-72 116 324 0
c gate 325 -115 -324 0
-115 -325 0
-324 -325 0
115 324 325 0
c gate 326 -323 325 0
-323 -326 0
325 -326 0
323 -325 326 0
c gate 327 69 116 0
69 -327 0
116 -327 0
-69 -116 327 0
c gate 328 71 -116 0
71 -328 0
-116 -328 0
-71 116 328 0
c gate 329 115 -328 0
115 -329 0
-328 -329 0
-115 328 329 0
c gate 330 -327 329 0
-327 -330 0
329 -330 0
327 -329 330 0
c gate 331 -118 -330 0
-118 -331 0
-330 -331 0
118 330 331 0
c gate 332 -326 331 0
-326 -332 0
331 -332 0
326 -331 332 0
c gate 333 -117 -332 0
-117 -333 0
-332 -333 0
117 332 333 0
c gate 334 -322 333 0
-322 -334 0
333 -334 0
322 -333 334 0
c gate 335 -315 -334 0
-315 -335 0
-334 -335 0
315 334 335 0
c gate 336 -120 -335 0
-120 -336 0
-335 -336 0
120 335 336 0
c gate 337 39 -116 0
39 -337 0
-116 -337 0
-39 116 337 0
c gate 338 37 116 0
37 -338 0
116 -338 0
-37 -116 338 0
c gate 339 115 -338 0
115 -339 0
-338 -339 0
-115 338 339 0
c gate 340 -337 339 0
-337 -340 0
339 -340 0
337 -339 340 0
c gate 341 40 -116 0
40 -341 0
-116 -341 0
-40 116 341 0
c gate 342 38 116 0
38 -342 0
116 -342 0
-38 -116 342 0
c gate 343 -115 -342 0
-115 -343 0
-342 -343 0
115 342 343 0
c gate 344 -341 343 0
-341 -344 0
343 -344 0
341 -343 344 0
c gate 345 -118 -344 0
-118 -345 0
-344 -345 0
118 344 345 0
c gate 346 -340 345 0
-340 -346 0
345 -346 0
340 -345 346 0
c gate 347 32 -116 0
32 -347 0
-116 -347 0
-32 116 347 0
c gate 348 30 116 0
30 -348 0
116 -348 0
-30 -116 348 0
c gate 349 -115 -348 0
-115 -349 0
-348 -349 0
115 348 349 0
c gate 350 -347 349 0
-347 -350 0
349 -350 0
347 -349 350 0
c gate 351 31 -116 0
31 -351 0
-116 -351 0
-31 116 351 0
c gate 352 29 116 0
29 -352 0
116 -352 0
-29 -116 352 0
c gate 353 115 -352 0
115 -353 0
-352 -353 0
-115 352 353 0
c gate 354 -351 353 0
-351 -354 0
353 -354 0
351 -353 354 0
c gate 355 118 -354 0
118 -355 0
-354 -355 0
-118 354 355 0
c gate 356 -350 355 0
-350 -356 0
355 -356 0
350 -355 356 0
c gate 357 -117 -356 0
-117 -357 0
-356 -357 0
117 356 357 0
c gate 358 -346 357 0
-346 -358 0
357 -358 0
346 -357 358 0
c gate 359 33 116 0
33 -359 0
116 -359 0
-33 -116 359 0
c gate 360 35 -116 0
35 -360 0
-116 -360 0
-35 116 360 0
c gate 361 115 -360 0
115 -361 0
-360 -361 0
-115 360 361 0
c gate 362 -359 361 0
-359 -362 0
361 -362 0
359 -361 362 0
c gate 363 36 -116 0
36 -363 0
-116 -363 0
-36 116 363 0
c gate 364 34 116 0
34 -364 0
116 -364 0
-34 -116 364 0
c gate 365 -115 -364 0
-115 -365 0
-364 -365 0
115 364 365 0
c gate 366 -363 365 0
-363 -366 0
365 -366 0
363 -365 366 0
c gate 367 -118 -366 0
-118 -367 0
-366 -367 0
118 366 367 0
c gate 368 -362 367 0
-362 -368 0
367 -368 0
362 -367 368 0
c gate 369 28 -116 0
28 -369 0
-116 -369 0
-28 116 369 0
c gate 370 26 116 0
26 -370 0
116 -370 0
-26 -116 370 0
c gate 371 -115 -370 0
-115 -371 0
-370 -371 0
115 370 371 0
c gate 372 -369 371 0
-369 -372 0
371 -372 0
369 -371 372 0
c gate 373 25 116 0
25 -373 0
116 -373 0
-25 -116 373 0
c gate 374 27 -116 0
27 -374 0
-116 -374 0
-27 116 374 0
c gate 375 115 -374 0
115 -375 0
-374 -375 0
-115 374 375 0
c gate 376 -373 375 0
-373 -376 0
375 -376 0
373 -375 376 0
c gate 377 118 -376 0
118 -377 0
-376 -377 0
-118 376 377 0
c gate 378 -372 377 0
-372 -378 0
377 -378 0
372 -377 378 0
c gate 379 117 -378 0
117 -379 0
-378 -379 0
-117 378 379 0
c gate 380 -368 379 0
-368 -380 0
379 -380 0
368 -379 380 0
c gate 381 -358 -380 0
-358 -381 0
-380 -381 0
358 380 381 0
c gate 382 120 -381 0
120 -382 0
-381 -382 0
-120 381 382 0
c gate 383 -119 -382 0
-119 -383 0
-382 -383 0
119 382 383 0
c gate 384 -336 383 0
-336 -384 0
383 -384 0
336 -383 384 0
c gate 385 121 -384 0
121 -385 0
-384 -385 0
-121 384 385 0
c gate 386 23 -116 0
23 -386 0
-116 -386 0
-23 116 386 0
c gate 387 21 116 0
21 -387 0
116 -387 0
-21 -116 387 0
c gate 388 115 -387 0
115 -388 0
-387 -388 0
-115 387 388 0
c gate 389 -386 388 0
-386 -389 0
388 -389 0
386 -388 389 0
c gate 390 24 -116 0
24 -390 0
-116 -390 0
-24 116 390 0
c gate 391 22 116 0
22 -391 0
116 -391 0
-22 -116 391 0
c gate 392 -115 -391 0
-115 -392 0
-391 -392 0
115 391 392 0
c gate 393 -390 392 0
-390 -393 0
392 -393 0
390 -392 393 0
c gate 394 -118 -393 0
-118 -394 0
-393 -394 0
118 393 394 0
c gate 395 -389 394 0
-389 -395 0
394 -395 0
389 -394 395 0
c gate 396 16 -116 0
16 -396 0
-116 -396 0
-16 116 396 0
c gate 397 14 116 0
14 -397 0
116 -397 0
-14 -116 397 0
c gate 398 -115 -397 0
-115 -398 0
-397 -398 0
115 397 398 0
c gate 399 -396 398 0
-396 -399 0
398 -399 0
396 -398 399 0
c gate 400 15 -116 0
15 -400 0
-116 -400 0
-15 116 400 0
c gate 401 13 116 0
13 -401 0
116 -401 0
-13 -116 401 0
c gate 402 115 -401 0
115 -402 0
-401 -402 0
-115 401 402 0
c gate 403 -400 402 0
-400 -403 0
402 -403 0
400 -402 403 0
c gate 404 118 -403 0
118 -404 0
-403 -404 0
-118 403 404 0
c gate 405 -399 404 0
-399 -405 0
404 -405 0
399 -404 405 0
c gate 406 -117 -405 0
-117 -406 0
-405 -406 0
117 405 406 0
c gate 407 -395 406 0
-395 -407 0
406 -407 0
395 -406 407 0
c gate 408 19 -116 0
19 -408 0
-116 -408 0
-19 116 408 0
c gate 409 17 116 0
17 -409 0
116 -409 0
-17 -116 409 0
c gate 410 115 -409 0
115 -410 0
-409 -410 0
-115 409 410 0
c gate 411 -408 410 0
-408 -411 0
410 -411 0
408 -410 411 0
c gate 412 20 -116 0
20 -412 0
-116 -412 0
-20 116 412 0
c gate 413 18 116 0
18 -413 0
116 -413 0
-18 -116 413 0
c gate 414 -115 -413 0
-115 -414 0
-413 -414 0
115 413 414 0
c gate 415 -412 414 0
-412 -415 0
414 -415 0
412 -414 415 0
c gate 416 -118 -415 0
-118 -416 0
-415 -416 0
118 415 416 0
c gate 417 -411 416 0
-411 -417 0
416 -417 0
411 -416 417 0
c gate 418 12 -116 0
12 -418 0
-116 -418 0
-12 116 418 0
c gate 419 10 116 0
10 -419 0
116 -419 0
-10 -116 419 0
c gate 420 -115 -419 0
-115 -420 0
-419 -420 0
115 419 420 0
c gate 421 -418 420 0
-418 -421 0
420 -421 0
418 -420 421 0
c gate 422 11 -116 0
11 -422 0
-116 -422 0
-11 116 422 0
c gate 423 9 116 0
9 -423 0
116 -423 0
-9 -116 423 0
c gate 424 115 -423 0
115 -424 0
-423 -424 0
-115 423 424 0
c gate 425 -422 424 0
-422 -425 0
424 -425 0
422 -424 425 0
c gate 426 118 -425 0
118 -426 0
-425 -426 0
-118 425 426 0
c gate 427 -421 426 0
-421 -427 0
426 -427 0
421 -426 427 0
c gate 428 117 -427 0
117 -428 0
-427 -428 0
-117 427 428 0
c gate 429 -417 428 0
-417 -429 0
428 -429 0
417 -428 429 0
c gate 430 -407 -429 0
-407 -430 0
-429 -430 0
407 429 430 0
c gate 431 120 -430 0
120 -431 0
-430 -431 0
-120 430 431 0
c gate 432 51 -116 0
51 -432 0
-116 -432 0
-51 116 432 0
c gate 433 49 116 0
49 -433 0
116 -433 0
-49 -116 433 0
c gate 434 115 -433 0
115 -434 0
-433 -434 0
-115 433 434 0
c gate 435 -432 434 0
-432 -435 0
434 -435 0
432 -434 435 0
c gate 436 52 -116 0
52 -436 0
-116 -436 0
-52 116 436 0
c gate 437 50 116 0
50 -437 0
116 -437 0
-50 -116 437 0
c gate 438 -115 -437 0
-115 -438 0
-437 -438 0
115 437 438 0
c gate 439 -436 438 0
-436 -439 0
438 -439 0
436 -438 439 0
c gate 440 -118 -439 0
-118 -440 0
-439 -440 0
118 439 440 0
c gate 441 -435 440 0
-435 -441 0
440 -441 0
435 -440 441 0
c gate 442 44 -116 0
44 -442 0
-116 -442 0
-44 116 442 0
c gate 443 42 116 0
42 -443 0
116 -443 0
-42 -116 443 0
c gate 444 -115 -443 0
-115 -444 0
-443 -444 0
115 443 444 0
c gate 445 -442 444 0
-442 -445 0
444 -445 0
442 -444 445 0
c gate 446 43 -116 0
43 -446 0
-116 -446 0
-43 116 446 0
c gate 447 41 116 0
41 -447 0
116 -447 0
-41 -116 447 0
c gate 448 115 -447 0
115 -448 0
-447 -448 0
-115 447 448 0
c gate 449 -446 448 0
-446 -449 0
448 -449 0
446 -448 449 0
c gate 450 118 -449 0
118 -450 0
-449 -450 0
-118 449 450 0
c gate 451 -445 450 0
-445 -451 0
450 -451 0
445 -450 451 0
c gate 452 117 -451 0
117 -452 0
-451 -452 0
-117 451 452 0
c gate 453 -441 452 0
-441 -453 0
452 -453 0
441 -452 453 0
c gate 454 55 -116 0
55 -454 0
-116 -454 0
-55 116 454 0
c gate 455 53 116 0
53 -455 0
116 -455 0
-53 -116 455 0
c gate 456 115 -455 0
115 -456 0
-455 -456 0
-115 455 456 0
c gate 457 -454 456 0
-454 -457 0
456 -457 0
454 -456 457 0
c gate 458 -115 180 0
-115 -458 0
180 -458 0
115 -180 458 0
c gate 459 -118 -458 0
-118 -459 0
-458 -459 0
118 458 459 0
c gate 460 -457 459 0
-457 -460 0
459 -460 0
457 -459 460 0
c gate 461 48 -116 0
48 -461 0
-116 -461 0
-48 116 461 0
c gate 462 46 116 0
46 -462 0
116 -462 0
-46 -116 462 0
c gate 463 -115 -462 0
-115 -463 0
-462 -463 0
115 462 463 0
c gate 464 -461 463 0
-461 -464 0
463 -464 0
461 -463 464 0
c gate 465 45 116 0
45 -465 0
116 -465 0
-45 -116 465 0
c gate 466 47 -116 0
47 -466 0
-116 -466 0
-47 116 466 0
c gate 467 115 -466 0
115 -467 0
-466 -467 0
-115 466 467 0
c gate 468 -465 467 0
-465 -468 0
467 -468 0
465 -467 468 0
c gate 469 118 -468 0
118 -469 0
-468 -469 0
-118 468 469 0
c gate 470 -464 469 0
-464 -470 0
469 -470 0
464 -469 470 0
c gate 471 -117 -470 0
-117 -471 0
-470 -471 0
117 470 471 0
c gate 472 -460 471 0
-460 -472 0
471 -472 0
460 -471 472 0
c gate 473 -453 -472 0
-453 -473 0
-472 -473 0
453 472 473 0
c gate 474 -120 -473 0
-120 -474 0
-473 -474 0
120 473 474 0
c gate 475 119 -474 0
119 -475 0
-474 -475 0
-119 474 475 0
c gate 476 -431 475 0
-431 -476 0
475 -476 0
431 -475 476 0
c gate 477 385 476 0
385 -477 0
476 -477 0
-385 -476 477 0
c gate 478 -299 -477 0
-299 -478 0
-477 -478 0
299 477 478 0
c gate 479 121 215 0
121 -479 0
215 -479 0
-121 -215 479 0
c gate 480 -478 -479 0
-478 -480 0
-479 -480 0
478 479 480 0
c gate 481 82 -116 0
82 -481 0
-116 -481 0
-82 116 481 0
c gate 482 80 116 0
80 -482 0
116 -482 0
-80 -116 482 0
c gate 483 115 -482 0
115 -483 0
-482 -483 0
-115 482 483 0
c gate 484 -481 483 0
-481 -484 0
483 -484 0
481 -483 484 0
c gate 485 81 116 0
81 -485 0
116 -485 0
-81 -116 485 0
c gate 486 83 -116 0
83 -486 0
-116 -486 0
-83 116 486 0
c gate 487 -485 -486 0
-485 -487 0
-486 -487 0
485 486 487 0
c gate 488 -115 487 0
-115 -488 0
487 -488 0
115 -487 488 0
c gate 489 -118 -488 0
-118 -489 0
-488 -489 0
118 488 489 0
c gate 490 -484 489 0
-484 -490 0
489 -490 0
484 -489 490 0
c gate 491 73 116 0
73 -491 0
116 -491 0
-73 -116 491 0
c gate 492 75 -116 0
75 -492 0
-116 -492 0
-75 116 492 0
c gate 493 -115 -492 0
-115 -493 0
-492 -493 0
115 492 493 0
c gate 494 -491 493 0
-491 -494 0
493 -494 0
491 -493 494 0
c gate 495 72 116 0
72 -495 0
116 -495 0
-72 -116 495 0
c gate 496 74 -116 0
74 -496 0
-116 -496 0
-74 116 496 0
c gate 497 115 -496 0
115 -497 0
-496 -497 0
-115 496 497 0
c gate 498 -495 497 0
-495 -498 0
497 -498 0
495 -497 498 0
c gate 499 118 -498 0
118 -499 0
-498 -499 0
-118 498 499 0
c gate 500 -494 499 0
-494 -500 0
499 -500 0
494 -499 500 0
c gate 501 117 -500 0
117 -501 0
-500 -501 0
-117 500 501 0
c gate 502 -490 501 0
-490 -502 0
501 -502 0
490 -501 502 0
c gate 503 78 -116 0
78 -503 0
-116 -503 0
-78 116 503 0
c gate 504 76 116 0
76 -504 0
116 -504 0
-76 -116 504 0
c gate 505 115 -504 0
115 -505 0
-504 -505 0
-115 504 505 0
c gate 506 -503 505 0
-503 -506 0
505 -506 0
503 -505 506 0
c gate 507 77 116 0
77 -507 0
116 -507 0
-77 -116 507 0
c gate 508 79 -116 0
79 -508 0
-116 -508 0
-79 116 508 0
c gate 509 -507 -508 0
-507 -509 0
-508 -509 0
507 508 509 0
c gate 510 -115 509 0
-115 -510 0
509 -510 0
115 -509 510 0
c gate 511 118 -510 0
118 -511 0
-510 -511 0
-118 510 511 0
c gate 512 -506 511 0
-506 -512 0
511 -512 0
506 -511 512 0
c gate 513 86 -116 0
86 -513 0
-116 -513 0
-86 116 513 0
c gate 514 84 116 0
84 -514 0
116 -514 0
-84 -116 514 0
c gate 515 115 -514 0
115 -515 0
-514 -515 0
-115 514 515 0
c gate 516 -513 515 0
-513 -516 0
515 -516 0
513 -515 516 0
c gate 517 85 116 0
85 -517 0
116 -517 0
-85 -116 517 0
c gate 518 87 -116 0
87 -518 0
-116 -518 0
-87 116 518 0
c gate 519 -517 -518 0
-517 -519 0
-518 -519 0
517 518 519 0
c gate 520 -115 519 0
-115 -520 0
519 -520 0
115 -519 520 0
c gate 521 -118 -520 0
-118 -521 0
-520 -521 0
118 520 521 0
c gate 522 -516 521 0
-516 -522 0
521 -522 0
516 -521 522 0
c gate 523 -117 -522 0
-117 -523 0
-522 -523 0
117 522 523 0
c gate 524 -512 523 0
-512 -524 0
523 -524 0
512 -523 524 0
c gate 525 120 -524 0
120 -525 0
-524 -525 0
-120 524 525 0
c gate 526 -502 525 0
-502 -526 0
525 -526 0
502 -525 526 0
c gate 527 112 -116 0
112 -527 0
-116 -527 0
-112 116 527 0
c gate 528 110 116 0
110 -528 0
116 -528 0
-110 -116 528 0
c gate 529 115 -528 0
115 -529 0
-528 -529 0
-115 528 529 0
c gate 530 -527 529 0
-527 -530 0
529 -530 0
527 -529 530 0
c gate 531 111 116 0
111 -531 0
116 -531 0
-111 -116 531 0
c gate 532 113 -116 0
113 -532 0
-116 -532 0
-113 116 532 0
c gate 533 -531 -532 0
-531 -533 0
-532 -533 0
531 532 533 0
c gate 534 -115 533 0
-115 -534 0
533 -534 0
115 -533 534 0
c gate 535 -118 -534 0
-118 -535 0
-534 -535 0
118 534 535 0
c gate 536 -530 535 0
-530 -536 0
535 -536 0
530 -535 536 0
c gate 537 103 116 0
103 -537 0
116 -537 0
-103 -116 537 0
c gate 538 105 -116 0
105 -538 0
-116 -538 0
-105 116 538 0
c gate 539 -115 -538 0
-115 -539 0
-538 -539 0
115 538 539 0
c gate 540 -537 539 0
-537 -540 0
539 -540 0
537 -539 540 0
c gate 541 102 116 0
102 -541 0
116 -541 0
-102 -116 541 0
c gate 542 104 -116 0
104 -542 0
-116 -542 0
-104 116 542 0
c gate 543 115 -542 0
115 -543 0
-542 -543 0
-115 542 543 0
c gate 544 -541 543 0
-541 -544 0
543 -544 0
541 -543 544 0
c gate 545 118 -544 0
118 -545 0
-544 -545 0
-118 544 545 0
c gate 546 -540 545 0
-540 -546 0
545 -546 0
540 -545 546 0
c gate 547 117 -546 0
117 -547 0
-546 -547 0
-117 546 547 0
c gate 548 -536 547 0
-536 -548 0
547 -548 0
536 -547 548 0
c gate 549 108 -116 0
108 -549 0
-116 -549 0
-108 116 549 0
c gate 550 106 116 0
106 -550 0
116 -550 0
-106 -116 550 0
c gate 551 115 -550 0
115 -551 0
-550 -551 0
-115 550 551 0
c gate 552 -549 551 0
-549 -552 0
551 -552 0
549 -551 552 0
c gate 553 107 116 0
107 -553 0
116 -553 0
-107 -116 553 0
c gate 554 109 -116 0
109 -554 0
-116 -554 0
-109 116 554 0
c gate 555 -553 -554 0
-553 -555 0
-554 -555 0
553 554 555 0
c gate 556 -115 555 0
-115 -556 0
555 -556 0
115 -555 556 0
c gate 557 118 -556 0
118 -557 0
-556 -557 0
-118 556 557 0
c gate 558 -552 557 0
-552 -558 0
557 -558 0
552 -557 558 0
c gate 559 2 -116 0
2 -559 0
-116 -559 0
-2 116 559 0
c gate 560 114 116 0
114 -560 0
116 -560 0
-114 -116 560 0
c gate 561 115 -560 0
115 -561 0
-560 -561 0
-115 560 561 0
c gate 562 -559 561 0
-559 -562 0
561 -562 0
559 -561 562 0
c gate 563 1 116 0
1 -563 0
116 -563 0
-1 -116 563 0
c gate 564 3 -116 0
3 -564 0
-116 -564 0
-3 116 564 0
c gate 565 -563 -564 0
-563 -565 0
-564 -565 0
563 564 565 0
c gate 566 -115 565 0
-115 -566 0
565 -566 0
115 -565 566 0
c gate 567 -118 -566 0
-118 -567 0
-566 -567 0
118 566 567 0
c gate 568 -562 567 0
-562 -568 0
567 -568 0
562 -567 568 0
c gate 569 -117 -568 0
-117 -569 0
-568 -569 0
117 568 569 0
c gate 570 -558 569 0
-558 -570 0
569 -570 0
558 -569 570 0
c gate 571 -120 -570 0
-120 -571 0
-570 -571 0
120 570 571 0
c gate 572 -548 571 0
-548 -572 0
571 -572 0
548 -571 572 0
c gate 573 119 -572 0
119 -573 0
-572 -573 0
-119 572 573 0
c gate 574 -526 573 0
-526 -574 0
573 -574 0
526 -573 574 0
c gate 575 121 574 0
121 -575 0
574 -575 0
-121 -574 575 0
c gate 576 115 555 0
115 -576 0
555 -576 0
-115 -555 576 0
c gate 577 108 116 0
108 -577 0
116 -577 0
-108 -116 577 0
c gate 578 110 -116 0
110 -578 0
-116 -578 0
-110 116 578 0
c gate 579 -115 -578 0
-115 -579 0
-578 -579 0
115 578 579 0
c gate 580 -577 579 0
-577 -580 0
579 -580 0
577 -579 580 0
c gate 581 118 -580 0
118 -581 0
-580 -581 0
-118 580 581 0
c gate 582 -576 581 0
-576 -582 0
581 -582 0
576 -581 582 0
c gate 583 115 565 0
115 -583 0
565 -583 0
-115 -565 583 0
c gate 584 2 116 0
2 -584 0
116 -584 0
-2 -116 584 0
c gate 585 4 -116 0
4 -585 0
-116 -585 0
-4 116 585 0
c gate 586 -115 -585 0
-115 -586 0
-585 -586 0
115 585 586 0
c gate 587 -584 586 0
-584 -587 0
586 -587 0
584 -586 587 0
c gate 588 -118 -587 0
-118 -588 0
-587 -588 0
118 587 588 0
c gate 589 -583 588 0
-583 -589 0
588 -589 0
583 -588 589 0
c gate 590 117 -589 0
117 -590 0
-589 -590 0
-117 589 590 0
c gate 591 -582 590 0
-582 -591 0
590 -591 0
582 -590 591 0
c gate 592 115 533 0
115 -592 0
533 -592 0
-115 -533 592 0
c gate 593 112 116 0
112 -593 0
116 -593 0
-112 -116 593 0
c gate 594 114 -116 0
114 -594 0
-116 -594 0
-114 116 594 0
c gate 595 -115 -594 0
-115 -595 0
-594 -595 0
115 594 595 0
c gate 596 -593 595 0
-593 -596 0
595 -596 0
593 -595 596 0
c gate 597 118 -596 0
118 -597 0
-596 -597 0
-118 596 597 0
c gate 598 -592 597 0
-592 -598 0
597 -598 0
592 -597 598 0
c gate 599 6 116 0
6 -599 0
116 -599 0
-6 -116 599 0
c gate 600 8 -116 0
8 -600 0
-116 -600 0
-8 116 600 0
c gate 601 -115 -600 0
-115 -601 0
-600 -601 0
115 600 601 0
c gate 602 -599 601 0
-599 -602 0
601 -602 0
599 -601 602 0
c gate 603 5 116 0
5 -603 0
116 -603 0
-5 -116 603 0
c gate 604 7 -116 0
7 -604 0
-116 -604 0
-7 116 604 0
c gate 605 115 -604 0
115 -605 0
-604 -605 0
-115 604 605 0
c gate 606 -603 605 0
-603 -606 0
605 -606 0
603 -605 606 0
c gate 607 -118 -606 0
-118 -607 0
-606 -607 0
118 606 607 0
c gate 608 -602 607 0
-602 -608 0
607 -608 0
602 -607 608 0
c gate 609 -117 -608 0
-117 -609 0
-608 -609 0
117 608 609 0
c gate 610 -598 609 0
-598 -610 0
609 -610 0
598 -609 610 0
c gate 611 -591 -610 0
-591 -611 0
-610 -611 0
591 610 611 0
c gate 612 -120 -611 0
-120 -612 0
-611 -612 0
120 611 612 0
c gate 613 115 519 0
115 -613 0
519 -613 0
-115 -519 613 0
c gate 614 -115 124 0
-115 -614 0
124 -614 0
115 -124 614 0
c gate 615 -118 -614 0
-118 -615 0
-614 -615 0
118 614 615 0
c gate 616 -613 615 0
-613 -616 0
615 -616 0
613 -615 616 0
c gate 617 115 509 0
115 -617 0
509 -617 0
-115 -509 617 0
c gate 618 78 116 0
78 -618 0
116 -618 0
-78 -116 618 0
c gate 619 80 -116 0
80 -619 0
-116 -619 0
-80 116 619 0
c gate 620 -115 -619 0
-115 -620 0
-619 -620 0
115 619 620 0
c gate 621 -618 620 0
-618 -621 0
620 -621 0
618 -620 621 0
c gate 622 118 -621 0
118 -622 0
-621 -622 0
-118 621 622 0
c gate 623 -617 622 0
-617 -623 0
622 -623 0
617 -622 623 0
c gate 624 -616 -623 0
-616 -624 0
-623 -624 0
616 623 624 0
c gate 625 117 -624 0
117 -625 0
-624 -625 0
-117 624 625 0
c gate 626 115 487 0
115 -626 0
487 -626 0
-115 -487 626 0
c gate 627 82 116 0
82 -627 0
116 -627 0
-82 -116 627 0
c gate 628 84 -116 0
84 -628 0
-116 -628 0
-84 116 628 0
c gate 629 -115 -628 0
-115 -629 0
-628 -629 0
115 628 629 0
c gate 630 -627 629 0
-627 -630 0
629 -630 0
627 -629 630 0
c gate 631 118 -630 0
118 -631 0
-630 -631 0
-118 630 631 0
c gate 632 -626 631 0
-626 -632 0
631 -632 0
626 -631 632 0
c gate 633 89 116 0
89 -633 0
116 -633 0
-89 -116 633 0
c gate 634 91 -116 0
91 -634 0
-116 -634 0
-91 116 634 0
c gate 635 115 -634 0
115 -635 0
-634 -635 0
-115 634 635 0
c gate 636 -633 635 0
-633 -636 0
635 -636 0
633 -635 636 0
c gate 637 -115 146 0
-115 -637 0
146 -637 0
115 -146 637 0
c gate 638 -118 -637 0
-118 -638 0
-637 -638 0
118 637 638 0
c gate 639 -636 638 0
-636 -639 0
638 -639 0
636 -638 639 0
c gate 640 -632 -639 0
-632 -640 0
-639 -640 0
632 639 640 0
c gate 641 -117 -640 0
-117 -641 0
-640 -641 0
117 640 641 0
c gate 642 120 -641 0
120 -642 0
-641 -642 0
-120 641 642 0
c gate 643 -625 642 0
-625 -643 0
642 -643 0
625 -642 643 0
c gate 644 -612 -643 0
-612 -644 0
-643 -644 0
612 643 644 0
c gate 645 119 -644 0
119 -645 0
-644 -645 0
-119 644 645 0
c gate 646 121 645 0
121 -646 0
645 -646 0
-121 -645 646 0
c gate 647 -575 -646 0
-575 -647 0
-646 -647 0
575 646 647 0
c gate 648 480 647 0
480 -648 0
647 -648 0
-480 -647 648 0
c gate 649 -121 298 0
-121 -649 0
298 -649 0
121 -298 649 0
c gate 650 -385 476 0
-385 -650 0
476 -650 0
385 -476 650 0
c gate 651 -649 -650 0
-649 -651 0
-650 -651 0
649 650 651 0
c gate 652 -648 651 0
-648 -652 0
651 -652 0
648 -651 652 0
c gate 653 216 -652 0
216 -653 0
-652 -653 0
-216 652 653 0
c gate 654 -121 574 0
-121 -654 0
574 -654 0
121 -574 654 0
c gate 655 -653 -654 0
-653 -655 0
-654 -655 0
653 654 655 0
c gate 656 574 653 0
574 -656 0
653 -656 0
-574 -653 656 0
c gate 657 -655 -656 0
-655 -657 0
-656 -657 0
655 656 657 0
c PO
657 0
